Route #1: 31 46 35
Route #2: 83 51 81
Route #3: 68 90 84 66
Route #4: 4 13 74
Route #5: 40 88 67 44
Route #6: 1 70 54
Route #7: 7 2 45 43 29 36 72 57
Route #8: 92 9 86
Route #9: 79 11 85 30
Route #10: 23 61 100
Route #11: 14 49 6 37 87
Route #12: 69 16 55 76
Route #13: 8 17
Route #14: 28 42 78 65 25
Route #15: 63 77 3
Route #16: 20 41 22 15
Route #17: 75 93
Route #18: 71 62 99 98 89
Route #19: 19 97 27
Route #20: 32 33 53 73 95 24
Route #21: 5 12 58
Route #22: 34 64 96 48 26 47 38
Route #23: 21 56 94 80
Route #24: 82 60 59
Route #25: 18 10 39
Route #26: 52 91 50
Cost 27591.0000
Time 16.0009